min: T;
r_1_4 = 0;
r_2_4 = 0;
r_3_4 = 0;
11 + 2.2 a_1_1 + 2.2 a_4_1 + 2.2 a_7_1 + r_1_1 <= r_1_0;
11 + 2.2 a_1_2 + 2.2 a_4_2 + 2.2 a_7_2 + r_1_2 <= r_1_1;
11 + 2.2 a_1_3 + 2.2 a_4_3 + 2.2 a_7_3 + r_1_3 <= r_1_2;
11 + 2.2 a_1_4 + 2.2 a_4_4 + 2.2 a_7_4 + r_1_4 <= r_1_3;
11 + 4.4 a_2_1 + 4.4 a_5_1 + r_2_1 <= r_2_0;
11 + 4.4 a_2_2 + 4.4 a_5_2 + r_2_2 <= r_2_1;
11 + 4.4 a_2_3 + 4.4 a_5_3 + r_2_3 <= r_2_2;
11 + 4.4 a_2_4 + 4.4 a_5_4 + r_2_4 <= r_2_3;
11 + 4.4 a_3_1 + 4.4 a_6_1 + r_3_1 <= r_3_0;
11 + 4.4 a_3_2 + 4.4 a_6_2 + r_3_2 <= r_3_1;
11 + 4.4 a_3_3 + 4.4 a_6_3 + r_3_3 <= r_3_2;
11 + 4.4 a_3_4 + 4.4 a_6_4 + r_3_4 <= r_3_3;
11 + 4.4 a_4_1 + 4.4 a_7_1 + r_4_1 <= r_4_0;
11 + 4.4 a_4_2 + 4.4 a_7_2 + r_4_2 <= r_4_1;
11 + 4.4 a_4_3 + 4.4 a_7_3 + r_4_3 <= r_4_2;
11 + 4.4 a_4_4 + 4.4 a_7_4 + r_4_4 <= r_4_3;
11 + 4.4 a_5_1 + r_5_1 <= r_5_0;
11 + 4.4 a_5_2 + r_5_2 <= r_5_1;
11 + 4.4 a_5_3 + r_5_3 <= r_5_2;
11 + 4.4 a_5_4 + r_5_4 <= r_5_3;
11 + 2.2 a_6_1 + r_6_1 <= r_6_0;
11 + 2.2 a_6_2 + r_6_2 <= r_6_1;
11 + 2.2 a_6_3 + r_6_3 <= r_6_2;
11 + 2.2 a_6_4 + r_6_4 <= r_6_3;
11 + 4.4 a_7_1 + r_7_1 <= r_7_0;
11 + 4.4 a_7_2 + r_7_2 <= r_7_1;
11 + 4.4 a_7_3 + r_7_3 <= r_7_2;
11 + 4.4 a_7_4 + r_7_4 <= r_7_3;
11 + 2.2 a_1_0 + 2.2 a_4_0 + 2.2 a_7_0 + r_1_0 <= r_4_0;
11 + 2.2 a_1_1 + 2.2 a_4_1 + 2.2 a_7_1 + r_1_1 <= r_4_1;
11 + 2.2 a_1_2 + 2.2 a_4_2 + 2.2 a_7_2 + r_1_2 <= r_4_2;
11 + 2.2 a_1_3 + 2.2 a_4_3 + 2.2 a_7_3 + r_1_3 <= r_4_3;
11 + 2.2 a_1_4 + 2.2 a_4_4 + 2.2 a_7_4 + r_1_4 <= r_4_4;
11 + 4.4 a_2_0 + 4.4 a_5_0 + r_2_0 <= r_5_0;
11 + 4.4 a_2_1 + 4.4 a_5_1 + r_2_1 <= r_5_1;
11 + 4.4 a_2_2 + 4.4 a_5_2 + r_2_2 <= r_5_2;
11 + 4.4 a_2_3 + 4.4 a_5_3 + r_2_3 <= r_5_3;
11 + 4.4 a_2_4 + 4.4 a_5_4 + r_2_4 <= r_5_4;
11 + 4.4 a_3_0 + 4.4 a_6_0 + r_3_0 <= r_6_0;
11 + 4.4 a_3_1 + 4.4 a_6_1 + r_3_1 <= r_6_1;
11 + 4.4 a_3_2 + 4.4 a_6_2 + r_3_2 <= r_6_2;
11 + 4.4 a_3_3 + 4.4 a_6_3 + r_3_3 <= r_6_3;
11 + 4.4 a_3_4 + 4.4 a_6_4 + r_3_4 <= r_6_4;
11 + 4.4 a_4_0 + 4.4 a_7_0 + r_4_0 <= r_7_0;
11 + 4.4 a_4_1 + 4.4 a_7_1 + r_4_1 <= r_7_1;
11 + 4.4 a_4_2 + 4.4 a_7_2 + r_4_2 <= r_7_2;
11 + 4.4 a_4_3 + 4.4 a_7_3 + r_4_3 <= r_7_3;
11 + 4.4 a_4_4 + 4.4 a_7_4 + r_4_4 <= r_7_4;
r_0_0 <= t_0_0;
r_0_1 <= t_0_1;
r_0_2 <= t_0_2;
r_0_3 <= t_0_3;
r_0_4 <= t_0_4;
11 + 2.2 a_1_0 + 2.2 a_4_0 + 2.2 a_7_0 + r_1_0 <= t_1_0;
11 + 2.2 a_1_1 + 2.2 a_4_1 + 2.2 a_7_1 + r_1_1 <= t_1_1;
11 + 2.2 a_1_2 + 2.2 a_4_2 + 2.2 a_7_2 + r_1_2 <= t_1_2;
11 + 2.2 a_1_3 + 2.2 a_4_3 + 2.2 a_7_3 + r_1_3 <= t_1_3;
11 + 2.2 a_1_4 + 2.2 a_4_4 + 2.2 a_7_4 + r_1_4 <= t_1_4;
11 + 4.4 a_2_0 + 4.4 a_5_0 + r_2_0 <= t_2_0;
11 + 4.4 a_2_1 + 4.4 a_5_1 + r_2_1 <= t_2_1;
11 + 4.4 a_2_2 + 4.4 a_5_2 + r_2_2 <= t_2_2;
11 + 4.4 a_2_3 + 4.4 a_5_3 + r_2_3 <= t_2_3;
11 + 4.4 a_2_4 + 4.4 a_5_4 + r_2_4 <= t_2_4;
11 + 4.4 a_3_0 + 4.4 a_6_0 + r_3_0 <= t_3_0;
11 + 4.4 a_3_1 + 4.4 a_6_1 + r_3_1 <= t_3_1;
11 + 4.4 a_3_2 + 4.4 a_6_2 + r_3_2 <= t_3_2;
11 + 4.4 a_3_3 + 4.4 a_6_3 + r_3_3 <= t_3_3;
11 + 4.4 a_3_4 + 4.4 a_6_4 + r_3_4 <= t_3_4;
11 + 4.4 a_4_0 + 4.4 a_7_0 + r_4_0 <= t_4_0;
11 + 4.4 a_4_1 + 4.4 a_7_1 + r_4_1 <= t_4_1;
11 + 4.4 a_4_2 + 4.4 a_7_2 + r_4_2 <= t_4_2;
11 + 4.4 a_4_3 + 4.4 a_7_3 + r_4_3 <= t_4_3;
11 + 4.4 a_4_4 + 4.4 a_7_4 + r_4_4 <= t_4_4;
11 + 4.4 a_5_0 + r_5_0 <= t_5_0;
11 + 4.4 a_5_1 + r_5_1 <= t_5_1;
11 + 4.4 a_5_2 + r_5_2 <= t_5_2;
11 + 4.4 a_5_3 + r_5_3 <= t_5_3;
11 + 4.4 a_5_4 + r_5_4 <= t_5_4;
11 + 2.2 a_6_0 + r_6_0 <= t_6_0;
11 + 2.2 a_6_1 + r_6_1 <= t_6_1;
11 + 2.2 a_6_2 + r_6_2 <= t_6_2;
11 + 2.2 a_6_3 + r_6_3 <= t_6_3;
11 + 2.2 a_6_4 + r_6_4 <= t_6_4;
11 + 4.4 a_7_0 + r_7_0 <= t_7_0;
11 + 4.4 a_7_1 + r_7_1 <= t_7_1;
11 + 4.4 a_7_2 + r_7_2 <= t_7_2;
11 + 4.4 a_7_3 + r_7_3 <= t_7_3;
11 + 4.4 a_7_4 + r_7_4 <= t_7_4;
16 a_0_1 + t_0_1 <= t_0_0;
16 a_0_2 + t_0_2 <= t_0_1;
16 a_0_3 + t_0_3 <= t_0_2;
16 a_0_4 + t_0_4 <= t_0_3;
20 a_1_1 + t_1_1 <= t_1_0;
20 a_1_2 + t_1_2 <= t_1_1;
20 a_1_3 + t_1_3 <= t_1_2;
20 a_1_4 + t_1_4 <= t_1_3;
16 a_2_1 + t_2_1 <= t_2_0;
16 a_2_2 + t_2_2 <= t_2_1;
16 a_2_3 + t_2_3 <= t_2_2;
16 a_2_4 + t_2_4 <= t_2_3;
16 a_3_1 + t_3_1 <= t_3_0;
16 a_3_2 + t_3_2 <= t_3_1;
16 a_3_3 + t_3_3 <= t_3_2;
16 a_3_4 + t_3_4 <= t_3_3;
20 a_4_1 + t_4_1 <= t_4_0;
20 a_4_2 + t_4_2 <= t_4_1;
20 a_4_3 + t_4_3 <= t_4_2;
20 a_4_4 + t_4_4 <= t_4_3;
16 a_5_1 + t_5_1 <= t_5_0;
16 a_5_2 + t_5_2 <= t_5_1;
16 a_5_3 + t_5_3 <= t_5_2;
16 a_5_4 + t_5_4 <= t_5_3;
20 a_6_1 + t_6_1 <= t_6_0;
20 a_6_2 + t_6_2 <= t_6_1;
20 a_6_3 + t_6_3 <= t_6_2;
20 a_6_4 + t_6_4 <= t_6_3;
20 a_7_1 + t_7_1 <= t_7_0;
20 a_7_2 + t_7_2 <= t_7_1;
20 a_7_3 + t_7_3 <= t_7_2;
20 a_7_4 + t_7_4 <= t_7_3;
16 a_0_0 + t_0_0 <= T;
20 a_1_0 + t_1_0 <= T;
16 a_2_0 + t_2_0 <= T;
16 a_3_0 + t_3_0 <= T;
20 a_4_0 + t_4_0 <= T;
16 a_5_0 + t_5_0 <= T;
20 a_6_0 + t_6_0 <= T;
20 a_7_0 + t_7_0 <= T;
a_0_0 + a_0_1 + a_0_2 + a_0_3 + a_0_4 + a_1_0 + a_1_1 + a_1_2 + a_1_3 + a_1_4 + a_2_0 + a_2_1 + a_2_2 + a_2_3 +
   a_2_4 + a_3_0 + a_3_1 + a_3_2 + a_3_3 + a_3_4 + a_4_0 + a_4_1 + a_4_2 + a_4_3 + a_4_4 + a_5_0 + a_5_1 + a_5_2
   + a_5_3 + a_5_4 + a_6_0 + a_6_1 + a_6_2 + a_6_3 + a_6_4 + a_7_0 + a_7_1 + a_7_2 + a_7_3 + a_7_4 = 10000;
r_0_0 = rk_0_0;
r_0_1 = rk_0_1;
r_0_2 = rk_0_2;
r_0_3 = rk_0_3;
r_0_4 = rk_0_4;
11 + 2.2 a_1_0 + 2.2 a_4_0 + 2.2 a_7_0 + r_1_0 = rk_1_0;
11 + 2.2 a_1_1 + 2.2 a_4_1 + 2.2 a_7_1 + r_1_1 = rk_1_1;
11 + 2.2 a_1_2 + 2.2 a_4_2 + 2.2 a_7_2 + r_1_2 = rk_1_2;
11 + 2.2 a_1_3 + 2.2 a_4_3 + 2.2 a_7_3 + r_1_3 = rk_1_3;
11 + 2.2 a_1_4 + 2.2 a_4_4 + 2.2 a_7_4 + r_1_4 = rk_1_4;
11 + 4.4 a_2_0 + 4.4 a_5_0 + r_2_0 = rk_2_0;
11 + 4.4 a_2_1 + 4.4 a_5_1 + r_2_1 = rk_2_1;
11 + 4.4 a_2_2 + 4.4 a_5_2 + r_2_2 = rk_2_2;
11 + 4.4 a_2_3 + 4.4 a_5_3 + r_2_3 = rk_2_3;
11 + 4.4 a_2_4 + 4.4 a_5_4 + r_2_4 = rk_2_4;
11 + 4.4 a_3_0 + 4.4 a_6_0 + r_3_0 = rk_3_0;
11 + 4.4 a_3_1 + 4.4 a_6_1 + r_3_1 = rk_3_1;
11 + 4.4 a_3_2 + 4.4 a_6_2 + r_3_2 = rk_3_2;
11 + 4.4 a_3_3 + 4.4 a_6_3 + r_3_3 = rk_3_3;
11 + 4.4 a_3_4 + 4.4 a_6_4 + r_3_4 = rk_3_4;
11 + 4.4 a_4_0 + 4.4 a_7_0 + r_4_0 = rk_4_0;
11 + 4.4 a_4_1 + 4.4 a_7_1 + r_4_1 = rk_4_1;
11 + 4.4 a_4_2 + 4.4 a_7_2 + r_4_2 = rk_4_2;
11 + 4.4 a_4_3 + 4.4 a_7_3 + r_4_3 = rk_4_3;
11 + 4.4 a_4_4 + 4.4 a_7_4 + r_4_4 = rk_4_4;
11 + 4.4 a_5_0 + r_5_0 = rk_5_0;
11 + 4.4 a_5_1 + r_5_1 = rk_5_1;
11 + 4.4 a_5_2 + r_5_2 = rk_5_2;
11 + 4.4 a_5_3 + r_5_3 = rk_5_3;
11 + 4.4 a_5_4 + r_5_4 = rk_5_4;
11 + 2.2 a_6_0 + r_6_0 = rk_6_0;
11 + 2.2 a_6_1 + r_6_1 = rk_6_1;
11 + 2.2 a_6_2 + r_6_2 = rk_6_2;
11 + 2.2 a_6_3 + r_6_3 = rk_6_3;
11 + 2.2 a_6_4 + r_6_4 = rk_6_4;
11 + 4.4 a_7_0 + r_7_0 = rk_7_0;
11 + 4.4 a_7_1 + r_7_1 = rk_7_1;
11 + 4.4 a_7_2 + r_7_2 = rk_7_2;
11 + 4.4 a_7_3 + r_7_3 = rk_7_3;
11 + 4.4 a_7_4 + r_7_4 = rk_7_4;
16 a_0_0 + t_0_0 = tk_0_0;
16 a_0_1 + t_0_1 = tk_0_1;
16 a_0_2 + t_0_2 = tk_0_2;
16 a_0_3 + t_0_3 = tk_0_3;
16 a_0_4 + t_0_4 = tk_0_4;
20 a_1_0 + t_1_0 = tk_1_0;
20 a_1_1 + t_1_1 = tk_1_1;
20 a_1_2 + t_1_2 = tk_1_2;
20 a_1_3 + t_1_3 = tk_1_3;
20 a_1_4 + t_1_4 = tk_1_4;
16 a_2_0 + t_2_0 = tk_2_0;
16 a_2_1 + t_2_1 = tk_2_1;
16 a_2_2 + t_2_2 = tk_2_2;
16 a_2_3 + t_2_3 = tk_2_3;
16 a_2_4 + t_2_4 = tk_2_4;
16 a_3_0 + t_3_0 = tk_3_0;
16 a_3_1 + t_3_1 = tk_3_1;
16 a_3_2 + t_3_2 = tk_3_2;
16 a_3_3 + t_3_3 = tk_3_3;
16 a_3_4 + t_3_4 = tk_3_4;
20 a_4_0 + t_4_0 = tk_4_0;
20 a_4_1 + t_4_1 = tk_4_1;
20 a_4_2 + t_4_2 = tk_4_2;
20 a_4_3 + t_4_3 = tk_4_3;
20 a_4_4 + t_4_4 = tk_4_4;
16 a_5_0 + t_5_0 = tk_5_0;
16 a_5_1 + t_5_1 = tk_5_1;
16 a_5_2 + t_5_2 = tk_5_2;
16 a_5_3 + t_5_3 = tk_5_3;
16 a_5_4 + t_5_4 = tk_5_4;
20 a_6_0 + t_6_0 = tk_6_0;
20 a_6_1 + t_6_1 = tk_6_1;
20 a_6_2 + t_6_2 = tk_6_2;
20 a_6_3 + t_6_3 = tk_6_3;
20 a_6_4 + t_6_4 = tk_6_4;
20 a_7_0 + t_7_0 = tk_7_0;
20 a_7_1 + t_7_1 = tk_7_1;
20 a_7_2 + t_7_2 = tk_7_2;
20 a_7_3 + t_7_3 = tk_7_3;
20 a_7_4 + t_7_4 = tk_7_4;
m = 5;